\ENCODING=ISO-8859-1
\Problem name: easy/mixed/danoint/danoint.mps

Maximize
 obj1: - x1 
Subject To
 obj_o: -0.058522482290176 x1 + x2 + x3 -.5 x4  -.3 x5 -.1 x6 -.6 x7 -.9 x8 -.04 x9 -.2 x10 -.4 x11 + x12 -.6 x13 -.8 x14 -.9 x15 -.8 x16 -.7 x17 -.5 x18 -.2 x19 -.1 x20 -.1 x21 -.3 x22 -.7 x23 -.2 x24 = 0
 c1:   x2 + x3 + x4 + x5 + x6 + x7 + x8  = 2
 c2:   x9 + x10 + x11 + x12 + x13 + x14 + x15  = 2
 c3:   x16 + x17 + x18 + x19 + x20 + x21 + x22  = 2
 c4:   x23 + x24 + x25 + x26 + x27 + x28 + x29  = 2
 c5:   x30 + x31 + x32 + x33 + x34 + x35 + x36  = 2
 c6:   x37 + x38 + x39 + x40 + x41 + x42 + x43  = 2
 c7:   x44 + x45 + x46 + x47 + x48 + x49 + x50  = 2
 c8:   x51 + x52 + x53 + x54 + x55 + x56 + x57  = 2
 c9:   x9 + x16 + x23 + x30 + x37 + x44 + x51  = 2
 c10:  x2 + x17 + x24 + x31 + x38 + x45 + x52  = 2
 c11:  x3 + x10 + x25 + x32 + x39 + x46 + x53  = 2
 c12:  x4 + x11 + x18 + x33 + x40 + x47 + x54  = 2
 c13:  x5 + x12 + x19 + x26 + x41 + x48 + x55  = 2
 c14:  x6 + x13 + x20 + x27 + x34 + x49 + x56  = 2
 c15:  x7 + x14 + x21 + x28 + x35 + x42 + x57  = 2
 c16:  x8 + x15 + x22 + x29 + x36 + x43 + x50  = 2
 c17:  x58 - x59 - x60 - x61 - x62 - x63 - x64 - x65  = 0
 c18:  x66 - x67 - x68 - x69 - x70 - x71 - x72 - x73  = 0
 c19:  x74 - x75 - x76 - x77 - x78 - x79 - x80 - x81  = 0
 c20:  x82 - x83 - x84 - x85 - x86 - x87 - x88 - x89  = 0
 c21:  x90 - x91 - x92 - x93 - x94 - x95 - x96 - x97  = 0
 c22:  x98 - x99 - x100 - x101 - x102 - x103 - x104 - x105  = 0
 c23:  x106 - x107 - x108 - x109 - x110 - x111 - x112 - x113  = 0
 c24:  x114 - x115 - x116 - x117 - x118 - x119 - x120 - x121  = 0
 c25:  x122 - x123 - x124 - x125 - x126 - x127 - x128 - x129  = 0
 c26:  x130 - x131 - x132 - x133 - x134 - x135 - x136 - x137  = 0
 c27:  x138 - x139 - x140 - x141 - x142 - x143 - x144 - x145  = 0
 c28:  x146 - x147 - x148 - x149 - x150 - x151 - x152 - x153  = 0
 c29:  x154 - x155 - x156 - x157 - x158 - x159 - x160 - x161  = 0
 c30:  x162 - x163 - x164 - x165 - x166 - x167 - x168 - x169  = 0
 c31:  x170 - x171 - x172 - x173 - x174 - x175 - x176 - x177  = 0
 c32:  x178 - x179 - x180 - x181 - x182 - x183 - x184 - x185  = 0
 c33:  x186 - x187 - x188 - x189 - x190 - x191 - x192 - x193  = 0
 c34:  x194 - x195 - x196 - x197 - x198 - x199 - x200 - x201  = 0
 c35:  x202 - x203 - x204 - x205 - x206 - x207 - x208 - x209  = 0
 c36:  x210 - x211 - x212 - x213 - x214 - x215 - x216 - x217  = 0
 c37:  x218 - x219 - x220 - x221 - x222 - x223 - x224 - x225  = 0
 c38:  x226 - x227 - x228 - x229 - x230 - x231 - x232 - x233  = 0
 c39:  x234 - x235 - x236 - x237 - x238 - x239 - x240 - x241  = 0
 c40:  x242 - x243 - x244 - x245 - x246 - x247 - x248 - x249  = 0
 c41:  x250 - x251 - x252 - x253 - x254 - x255 - x256 - x257  = 0
 c42:  x258 - x259 - x260 - x261 - x262 - x263 - x264 - x265  = 0
 c43:  x266 - x267 - x268 - x269 - x270 - x271 - x272 - x273  = 0
 c44:  x274 - x275 - x276 - x277 - x278 - x279 - x280 - x281  = 0
 c45:  x282 - x283 - x284 - x285 - x286 - x287 - x288 - x289  = 0
 c46:  x290 - x291 - x292 - x293 - x294 - x295 - x296 - x297  = 0
 c47:  x298 - x299 - x300 - x301 - x302 - x303 - x304 - x305  = 0
 c48:  x306 - x307 - x308 - x309 - x310 - x311 - x312 - x313  = 0
 c49:  x314 - x315 - x316 - x317 - x318 - x319 - x320 - x321  = 0
 c50:  x322 - x323 - x324 - x325 - x326 - x327 - x328 - x329  = 0
 c51:  x330 - x331 - x332 - x333 - x334 - x335 - x336 - x337  = 0
 c52:  x338 - x339 - x340 - x341 - x342 - x343 - x344 - x345  = 0
 c53:  x346 - x347 - x348 - x349 - x350 - x351 - x352 - x353  = 0
 c54:  x354 - x355 - x356 - x357 - x358 - x359 - x360 - x361  = 0
 c55:  x362 - x363 - x364 - x365 - x366 - x367 - x368 - x369  = 0
 c56:  x370 - x371 - x372 - x373 - x374 - x375 - x376 - x377  = 0
 c57:  x378 - x379 - x380 - x381 - x382 - x383 - x384 - x385  = 0
 c58:  x386 - x387 - x388 - x389 - x390 - x391 - x392 - x393  = 0
 c59:  x394 - x395 - x396 - x397 - x398 - x399 - x400 - x401  = 0
 c60:  x402 - x403 - x404 - x405 - x406 - x407 - x408 - x409  = 0
 c61:  x410 - x411 - x412 - x413 - x414 - x415 - x416 - x417  = 0
 c62:  x418 - x419 - x420 - x421 - x422 - x423 - x424 - x425  = 0
 c63:  x426 - x427 - x428 - x429 - x430 - x431 - x432 - x433  = 0
 c64:  x434 - x435 - x436 - x437 - x438 - x439 - x440 - x441  = 0
 c65:  x442 - x443 - x444 - x445 - x446 - x447 - x448 - x449  = 0
 c66:  x450 - x451 - x452 - x453 - x454 - x455 - x456 - x457  = 0
 c67:  x458 - x459 - x460 - x461 - x462 - x463 - x464 - x465  = 0
 c68:  x466 - x467 - x468 - x469 - x470 - x471 - x472 - x473  = 0
 c69:  x474 - x475 - x476 - x477 - x478 - x479 - x480 - x481  = 0
 c70:  x482 - x483 - x484 - x485 - x486 - x487 - x488 - x489  = 0
 c71:  x490 - x491 - x492 - x493 - x494 - x495 - x496 - x497  = 0
 c72:  x498 - x499 - x500 - x501 - x502 - x503 - x504 - x505  = 0
 c73:  x59 - x123 - x131 - x139 - x147 - x155 - x163 + x179 + x235 + x291
       + x347 + x403 + x459  = 10
 c74:  x67 + x123 - x179 - x187 - x195 - x203 - x211 - x219 + x243 + x299
       + x355 + x411 + x467  = 7
 c75:  x75 + x131 + x187 - x235 - x243 - x251 - x259 - x267 - x275 + x307
       + x363 + x419 + x475  = 13
 c76:  x83 + x139 + x195 + x251 - x291 - x299 - x307 - x315 - x323 - x331
       + x371 + x427 + x483  = 12
 c77:  x91 + x147 + x203 + x259 + x315 - x347 - x355 - x363 - x371 - x379
       - x387 + x435 + x491  = 13
 c78:  x99 + x155 + x211 + x267 + x323 + x379 - x403 - x411 - x419 - x427
       - x435 - x443 + x499  = 6
 c79:  x107 + x163 + x219 + x275 + x331 + x387 + x443 - x459 - x467 - x475
       - x483 - x491 - x499  = 13
 c80:  - x68 - x76 - x84 - x92 - x100 - x108 + x115 + x171 + x227 + x283 + x339
       + x395 + x451  = 14
 c81:  x68 + x124 - x171 - x188 - x196 - x204 - x212 - x220 + x244 + x300
       + x356 + x412 + x468  = 15
 c82:  x76 + x132 + x188 - x227 - x244 - x252 - x260 - x268 - x276 + x308
       + x364 + x420 + x476  = 13
 c83:  x84 + x140 + x196 + x252 - x283 - x300 - x308 - x316 - x324 - x332
       + x372 + x428 + x484  = 12
 c84:  x92 + x148 + x204 + x260 + x316 - x339 - x356 - x364 - x372 - x380
       - x388 + x436 + x492  = 9
 c85:  x100 + x156 + x212 + x268 + x324 + x380 - x395 - x412 - x420 - x428
       - x436 - x444 + x500  = 9
 c86:  x108 + x164 + x220 + x276 + x332 + x388 + x444 - x451 - x468 - x476
       - x484 - x492 - x500  = 9
 c87:  - x60 - x77 - x85 - x93 - x101 - x109 + x116 + x172 + x228 + x284 + x340
       + x396 + x452  = 13
 c88:  x60 - x116 - x133 - x141 - x149 - x157 - x165 + x180 + x236 + x292
       + x348 + x404 + x460  = 9
 c89:  x77 + x133 + x189 - x228 - x236 - x253 - x261 - x269 - x277 + x309
       + x365 + x421 + x477  = 11
 c90:  x85 + x141 + x197 + x253 - x284 - x292 - x309 - x317 - x325 - x333
       + x373 + x429 + x485  = 6
 c91:  x93 + x149 + x205 + x261 + x317 - x340 - x348 - x365 - x373 - x381
       - x389 + x437 + x493  = 5
 c92:  x101 + x157 + x213 + x269 + x325 + x381 - x396 - x404 - x421 - x429
       - x437 - x445 + x501  = 11
 c93:  x109 + x165 + x221 + x277 + x333 + x389 + x445 - x452 - x460 - x477
       - x485 - x493 - x501  = 8
 c94:  - x61 - x69 - x86 - x94 - x102 - x110 + x117 + x173 + x229 + x285 + x341
       + x397 + x453  = 7
 c95:  x61 - x117 - x125 - x142 - x150 - x158 - x166 + x181 + x237 + x293
       + x349 + x405 + x461  = 8
 c96:  x69 + x125 - x173 - x181 - x198 - x206 - x214 - x222 + x245 + x301
       + x357 + x413 + x469  = 15
 c97:  x86 + x142 + x198 + x254 - x285 - x293 - x301 - x318 - x326 - x334
       + x374 + x430 + x486  = 7
 c98:  x94 + x150 + x206 + x262 + x318 - x341 - x349 - x357 - x374 - x382
       - x390 + x438 + x494  = 6
 c99:  x102 + x158 + x214 + x270 + x326 + x382 - x397 - x405 - x413 - x430
       - x438 - x446 + x502  = 11
 c100: x110 + x166 + x222 + x278 + x334 + x390 + x446 - x453 - x461 - x469
       - x486 - x494 - x502  = 9
 c101: - x62 - x70 - x78 - x95 - x103 - x111 + x118 + x174 + x230 + x286 + x342
       + x398 + x454  = 8
 c102: x62 - x118 - x126 - x134 - x151 - x159 - x167 + x182 + x238 + x294
       + x350 + x406 + x462  = 12
 c103: x70 + x126 - x174 - x182 - x190 - x207 - x215 - x223 + x246 + x302
       + x358 + x414 + x470  = 12
 c104: x78 + x134 + x190 - x230 - x238 - x246 - x263 - x271 - x279 + x310
       + x366 + x422 + x478  = 9
 c105: x95 + x151 + x207 + x263 + x319 - x342 - x350 - x358 - x366 - x383
       - x391 + x439 + x495  = 9
 c106: x103 + x159 + x215 + x271 + x327 + x383 - x398 - x406 - x414 - x422
       - x439 - x447 + x503  = 14
 c107: x111 + x167 + x223 + x279 + x335 + x391 + x447 - x454 - x462 - x470
       - x478 - x495 - x503  = 11
 c108: - x63 - x71 - x79 - x87 - x104 - x112 + x119 + x175 + x231 + x287 + x343
       + x399 + x455  = 5
 c109: x63 - x119 - x127 - x135 - x143 - x160 - x168 + x183 + x239 + x295
       + x351 + x407 + x463  = 11
 c110: x71 + x127 - x175 - x183 - x191 - x199 - x216 - x224 + x247 + x303
       + x359 + x415 + x471  = 11
 c111: x79 + x135 + x191 - x231 - x239 - x247 - x255 - x272 - x280 + x311
       + x367 + x423 + x479  = 7
 c112: x87 + x143 + x199 + x255 - x287 - x295 - x303 - x311 - x328 - x336
       + x375 + x431 + x487  = 9
 c113: x104 + x160 + x216 + x272 + x328 + x384 - x399 - x407 - x415 - x423
       - x431 - x448 + x504  = 15
 c114: x112 + x168 + x224 + x280 + x336 + x392 + x448 - x455 - x463 - x471
       - x479 - x487 - x504  = 12
 c115: - x64 - x72 - x80 - x88 - x96 - x113 + x120 + x176 + x232 + x288 + x344
       + x400 + x456  = 6
 c116: x64 - x120 - x128 - x136 - x144 - x152 - x169 + x184 + x240 + x296
       + x352 + x408 + x464  = 9
 c117: x72 + x128 - x176 - x184 - x192 - x200 - x208 - x225 + x248 + x304
       + x360 + x416 + x472  = 7
 c118: x80 + x136 + x192 - x232 - x240 - x248 - x256 - x264 - x281 + x312
       + x368 + x424 + x480  = 14
 c119: x88 + x144 + x200 + x256 - x288 - x296 - x304 - x312 - x320 - x337
       + x376 + x432 + x488  = 10
 c120: x96 + x152 + x208 + x264 + x320 - x344 - x352 - x360 - x368 - x376
       - x393 + x440 + x496  = 12
 c121: x113 + x169 + x225 + x281 + x337 + x393 + x449 - x456 - x464 - x472
       - x480 - x488 - x496  = 7
 c122: - x65 - x73 - x81 - x89 - x97 - x105 + x121 + x177 + x233 + x289 + x345
       + x401 + x457  = 11
 c123: x65 - x121 - x129 - x137 - x145 - x153 - x161 + x185 + x241 + x297
       + x353 + x409 + x465  = 7
 c124: x73 + x129 - x177 - x185 - x193 - x201 - x209 - x217 + x249 + x305
       + x361 + x417 + x473  = 8
 c125: x81 + x137 + x193 - x233 - x241 - x249 - x257 - x265 - x273 + x313
       + x369 + x425 + x481  = 6
 c126: x89 + x145 + x201 + x257 - x289 - x297 - x305 - x313 - x321 - x329
       + x377 + x433 + x489  = 10
 c127: x97 + x153 + x209 + x265 + x321 - x345 - x353 - x361 - x369 - x377
       - x385 + x441 + x497  = 5
 c128: x105 + x161 + x217 + x273 + x329 + x385 - x401 - x409 - x417 - x425
       - x433 - x441 + x505  = 14
 c129: x1 + 62.69 x2 - x58 >= 62.69
 c130: x1 + 62.69 x3 - x66 >= 62.69
 c131: x1 + 62.69 x4 - x74 >= 62.69
 c132: x1 + 62.69 x5 - x82 >= 62.69
 c133: x1 + 62.69 x6 - x90 >= 62.69
 c134: x1 + 62.69 x7 - x98 >= 62.69
 c135: x1 + 62.69 x8 - x106 >= 62.69
 c136: x1 + 62.69 x9 - x114 >= 62.69
 c137: x1 + 62.69 x10 - x122 >= 62.69
 c138: x1 + 62.69 x11 - x130 >= 62.69
 c139: x1 + 62.69 x12 - x138 >= 62.69
 c140: x1 + 62.69 x13 - x146 >= 62.69
 c141: x1 + 62.69 x14 - x154 >= 62.69
 c142: x1 + 62.69 x15 - x162 >= 62.69
 c143: x1 + 62.69 x16 - x170 >= 62.69
 c144: x1 + 62.69 x17 - x178 >= 62.69
 c145: x1 + 62.69 x18 - x186 >= 62.69
 c146: x1 + 62.69 x19 - x194 >= 62.69
 c147: x1 + 62.69 x20 - x202 >= 62.69
 c148: x1 + 62.69 x21 - x210 >= 62.69
 c149: x1 + 62.69 x22 - x218 >= 62.69
 c150: x1 + 62.69 x23 - x226 >= 62.69
 c151: x1 + 62.69 x24 - x234 >= 62.69
 c152: x1 + 62.69 x25 - x242 >= 62.69
 c153: x1 + 62.69 x26 - x250 >= 62.69
 c154: x1 + 62.69 x27 - x258 >= 62.69
 c155: x1 + 62.69 x28 - x266 >= 62.69
 c156: x1 + 62.69 x29 - x274 >= 62.69
 c157: x1 + 62.69 x30 - x282 >= 62.69
 c158: x1 + 62.69 x31 - x290 >= 62.69
 c159: x1 + 62.69 x32 - x298 >= 62.69
 c160: x1 + 62.69 x33 - x306 >= 62.69
 c161: x1 + 62.69 x34 - x314 >= 62.69
 c162: x1 + 62.69 x35 - x322 >= 62.69
 c163: x1 + 62.69 x36 - x330 >= 62.69
 c164: x1 + 62.69 x37 - x338 >= 62.69
 c165: x1 + 62.69 x38 - x346 >= 62.69
 c166: x1 + 62.69 x39 - x354 >= 62.69
 c167: x1 + 62.69 x40 - x362 >= 62.69
 c168: x1 + 62.69 x41 - x370 >= 62.69
 c169: x1 + 62.69 x42 - x378 >= 62.69
 c170: x1 + 62.69 x43 - x386 >= 62.69
 c171: x1 + 62.69 x44 - x394 >= 62.69
 c172: x1 + 62.69 x45 - x402 >= 62.69
 c173: x1 + 62.69 x46 - x410 >= 62.69
 c174: x1 + 62.69 x47 - x418 >= 62.69
 c175: x1 + 62.69 x48 - x426 >= 62.69
 c176: x1 + 62.69 x49 - x434 >= 62.69
 c177: x1 + 62.69 x50 - x442 >= 62.69
 c178: x1 + 62.69 x51 - x450 >= 62.69
 c179: x1 + 62.69 x52 - x458 >= 62.69
 c180: x1 + 62.69 x53 - x466 >= 62.69
 c181: x1 + 62.69 x54 - x474 >= 62.69
 c182: x1 + 62.69 x55 - x482 >= 62.69
 c183: x1 + 62.69 x56 - x490 >= 62.69
 c184: x1 + 62.69 x57 - x498 >= 62.69
 c185: - 66.5 x2 + x59 <= 0
 c186: - 50 x2 + x60 <= 0
 c187: - 56 x2 + x61 <= 0
 c188: - 66.5 x2 + x62 <= 0
 c189: - 65 x2 + x63 <= 0
 c190: - 59 x2 + x64 <= 0
 c191: - 50 x2 + x65 <= 0
 c192: - 66.5 x3 + x67 <= 0
 c193: - 66.5 x3 + x68 <= 0
 c194: - 56 x3 + x69 <= 0
 c195: - 66.5 x3 + x70 <= 0
 c196: - 65 x3 + x71 <= 0
 c197: - 59 x3 + x72 <= 0
 c198: - 50 x3 + x73 <= 0
 c199: - 66.5 x4 + x75 <= 0
 c200: - 66.5 x4 + x76 <= 0
 c201: - 50 x4 + x77 <= 0
 c202: - 66.5 x4 + x78 <= 0
 c203: - 65 x4 + x79 <= 0
 c204: - 59 x4 + x80 <= 0
 c205: - 50 x4 + x81 <= 0
 c206: - 66.5 x5 + x83 <= 0
 c207: - 66.5 x5 + x84 <= 0
 c208: - 50 x5 + x85 <= 0
 c209: - 56 x5 + x86 <= 0
 c210: - 65 x5 + x87 <= 0
 c211: - 59 x5 + x88 <= 0
 c212: - 50 x5 + x89 <= 0
 c213: - 66.5 x6 + x91 <= 0
 c214: - 66.5 x6 + x92 <= 0
 c215: - 50 x6 + x93 <= 0
 c216: - 56 x6 + x94 <= 0
 c217: - 66.5 x6 + x95 <= 0
 c218: - 59 x6 + x96 <= 0
 c219: - 50 x6 + x97 <= 0
 c220: - 66.5 x7 + x99 <= 0
 c221: - 66.5 x7 + x100 <= 0
 c222: - 50 x7 + x101 <= 0
 c223: - 56 x7 + x102 <= 0
 c224: - 66.5 x7 + x103 <= 0
 c225: - 65 x7 + x104 <= 0
 c226: - 50 x7 + x105 <= 0
 c227: - 66.5 x8 + x107 <= 0
 c228: - 66.5 x8 + x108 <= 0
 c229: - 50 x8 + x109 <= 0
 c230: - 56 x8 + x110 <= 0
 c231: - 66.5 x8 + x111 <= 0
 c232: - 65 x8 + x112 <= 0
 c233: - 59 x8 + x113 <= 0
 c234: - 66.5 x9 + x115 <= 0
 c235: - 54 x9 + x116 <= 0
 c236: - 55 x9 + x117 <= 0
 c237: - 63 x9 + x118 <= 0
 c238: - 59 x9 + x119 <= 0
 c239: - 56 x9 + x120 <= 0
 c240: - 54 x9 + x121 <= 0
 c241: - 64 x10 + x123 <= 0
 c242: - 66.5 x10 + x124 <= 0
 c243: - 55 x10 + x125 <= 0
 c244: - 63 x10 + x126 <= 0
 c245: - 59 x10 + x127 <= 0
 c246: - 56 x10 + x128 <= 0
 c247: - 54 x10 + x129 <= 0
 c248: - 64 x11 + x131 <= 0
 c249: - 66.5 x11 + x132 <= 0
 c250: - 54 x11 + x133 <= 0
 c251: - 63 x11 + x134 <= 0
 c252: - 59 x11 + x135 <= 0
 c253: - 56 x11 + x136 <= 0
 c254: - 54 x11 + x137 <= 0
 c255: - 64 x12 + x139 <= 0
 c256: - 66.5 x12 + x140 <= 0
 c257: - 54 x12 + x141 <= 0
 c258: - 55 x12 + x142 <= 0
 c259: - 59 x12 + x143 <= 0
 c260: - 56 x12 + x144 <= 0
 c261: - 54 x12 + x145 <= 0
 c262: - 64 x13 + x147 <= 0
 c263: - 66.5 x13 + x148 <= 0
 c264: - 54 x13 + x149 <= 0
 c265: - 55 x13 + x150 <= 0
 c266: - 63 x13 + x151 <= 0
 c267: - 56 x13 + x152 <= 0
 c268: - 54 x13 + x153 <= 0
 c269: - 64 x14 + x155 <= 0
 c270: - 66.5 x14 + x156 <= 0
 c271: - 54 x14 + x157 <= 0
 c272: - 55 x14 + x158 <= 0
 c273: - 63 x14 + x159 <= 0
 c274: - 59 x14 + x160 <= 0
 c275: - 54 x14 + x161 <= 0
 c276: - 64 x15 + x163 <= 0
 c277: - 66.5 x15 + x164 <= 0
 c278: - 54 x15 + x165 <= 0
 c279: - 55 x15 + x166 <= 0
 c280: - 63 x15 + x167 <= 0
 c281: - 59 x15 + x168 <= 0
 c282: - 56 x15 + x169 <= 0
 c283: - 66 x16 + x171 <= 0
 c284: - 63 x16 + x172 <= 0
 c285: - 48 x16 + x173 <= 0
 c286: - 63 x16 + x174 <= 0
 c287: - 59 x16 + x175 <= 0
 c288: - 58 x16 + x176 <= 0
 c289: - 53 x16 + x177 <= 0
 c290: - 66.5 x17 + x179 <= 0
 c291: - 63 x17 + x180 <= 0
 c292: - 48 x17 + x181 <= 0
 c293: - 63 x17 + x182 <= 0
 c294: - 59 x17 + x183 <= 0
 c295: - 58 x17 + x184 <= 0
 c296: - 53 x17 + x185 <= 0
 c297: - 66.5 x18 + x187 <= 0
 c298: - 66 x18 + x188 <= 0
 c299: - 63 x18 + x189 <= 0
 c300: - 63 x18 + x190 <= 0
 c301: - 59 x18 + x191 <= 0
 c302: - 58 x18 + x192 <= 0
 c303: - 53 x18 + x193 <= 0
 c304: - 66.5 x19 + x195 <= 0
 c305: - 66 x19 + x196 <= 0
 c306: - 63 x19 + x197 <= 0
 c307: - 48 x19 + x198 <= 0
 c308: - 59 x19 + x199 <= 0
 c309: - 58 x19 + x200 <= 0
 c310: - 53 x19 + x201 <= 0
 c311: - 66.5 x20 + x203 <= 0
 c312: - 66 x20 + x204 <= 0
 c313: - 63 x20 + x205 <= 0
 c314: - 48 x20 + x206 <= 0
 c315: - 63 x20 + x207 <= 0
 c316: - 58 x20 + x208 <= 0
 c317: - 53 x20 + x209 <= 0
 c318: - 66.5 x21 + x211 <= 0
 c319: - 66 x21 + x212 <= 0
 c320: - 63 x21 + x213 <= 0
 c321: - 48 x21 + x214 <= 0
 c322: - 63 x21 + x215 <= 0
 c323: - 59 x21 + x216 <= 0
 c324: - 53 x21 + x217 <= 0
 c325: - 66.5 x22 + x219 <= 0
 c326: - 66 x22 + x220 <= 0
 c327: - 63 x22 + x221 <= 0
 c328: - 48 x22 + x222 <= 0
 c329: - 63 x22 + x223 <= 0
 c330: - 59 x22 + x224 <= 0
 c331: - 58 x22 + x225 <= 0
 c332: - 66.5 x23 + x227 <= 0
 c333: - 52 x23 + x228 <= 0
 c334: - 63 x23 + x229 <= 0
 c335: - 66 x23 + x230 <= 0
 c336: - 63 x23 + x231 <= 0
 c337: - 51 x23 + x232 <= 0
 c338: - 55 x23 + x233 <= 0
 c339: - 61 x24 + x235 <= 0
 c340: - 52 x24 + x236 <= 0
 c341: - 63 x24 + x237 <= 0
 c342: - 66 x24 + x238 <= 0
 c343: - 63 x24 + x239 <= 0
 c344: - 51 x24 + x240 <= 0
 c345: - 55 x24 + x241 <= 0
 c346: - 61 x25 + x243 <= 0
 c347: - 66.5 x25 + x244 <= 0
 c348: - 63 x25 + x245 <= 0
 c349: - 66 x25 + x246 <= 0
 c350: - 63 x25 + x247 <= 0
 c351: - 51 x25 + x248 <= 0
 c352: - 55 x25 + x249 <= 0
 c353: - 61 x26 + x251 <= 0
 c354: - 66.5 x26 + x252 <= 0
 c355: - 52 x26 + x253 <= 0
 c356: - 63 x26 + x254 <= 0
 c357: - 63 x26 + x255 <= 0
 c358: - 51 x26 + x256 <= 0
 c359: - 55 x26 + x257 <= 0
 c360: - 61 x27 + x259 <= 0
 c361: - 66.5 x27 + x260 <= 0
 c362: - 52 x27 + x261 <= 0
 c363: - 63 x27 + x262 <= 0
 c364: - 66 x27 + x263 <= 0
 c365: - 51 x27 + x264 <= 0
 c366: - 55 x27 + x265 <= 0
 c367: - 61 x28 + x267 <= 0
 c368: - 66.5 x28 + x268 <= 0
 c369: - 52 x28 + x269 <= 0
 c370: - 63 x28 + x270 <= 0
 c371: - 66 x28 + x271 <= 0
 c372: - 63 x28 + x272 <= 0
 c373: - 55 x28 + x273 <= 0
 c374: - 61 x29 + x275 <= 0
 c375: - 66.5 x29 + x276 <= 0
 c376: - 52 x29 + x277 <= 0
 c377: - 63 x29 + x278 <= 0
 c378: - 66 x29 + x279 <= 0
 c379: - 63 x29 + x280 <= 0
 c380: - 51 x29 + x281 <= 0
 c381: - 66.5 x30 + x283 <= 0
 c382: - 57 x30 + x284 <= 0
 c383: - 56 x30 + x285 <= 0
 c384: - 66.5 x30 + x286 <= 0
 c385: - 61 x30 + x287 <= 0
 c386: - 55 x30 + x288 <= 0
 c387: - 51 x30 + x289 <= 0
 c388: - 62 x31 + x291 <= 0
 c389: - 57 x31 + x292 <= 0
 c390: - 56 x31 + x293 <= 0
 c391: - 66.5 x31 + x294 <= 0
 c392: - 61 x31 + x295 <= 0
 c393: - 55 x31 + x296 <= 0
 c394: - 51 x31 + x297 <= 0
 c395: - 62 x32 + x299 <= 0
 c396: - 66.5 x32 + x300 <= 0
 c397: - 56 x32 + x301 <= 0
 c398: - 66.5 x32 + x302 <= 0
 c399: - 61 x32 + x303 <= 0
 c400: - 55 x32 + x304 <= 0
 c401: - 51 x32 + x305 <= 0
 c402: - 62 x33 + x307 <= 0
 c403: - 66.5 x33 + x308 <= 0
 c404: - 57 x33 + x309 <= 0
 c405: - 66.5 x33 + x310 <= 0
 c406: - 61 x33 + x311 <= 0
 c407: - 55 x33 + x312 <= 0
 c408: - 51 x33 + x313 <= 0
 c409: - 62 x34 + x315 <= 0
 c410: - 66.5 x34 + x316 <= 0
 c411: - 57 x34 + x317 <= 0
 c412: - 56 x34 + x318 <= 0
 c413: - 66.5 x34 + x319 <= 0
 c414: - 55 x34 + x320 <= 0
 c415: - 51 x34 + x321 <= 0
 c416: - 62 x35 + x323 <= 0
 c417: - 66.5 x35 + x324 <= 0
 c418: - 57 x35 + x325 <= 0
 c419: - 56 x35 + x326 <= 0
 c420: - 66.5 x35 + x327 <= 0
 c421: - 61 x35 + x328 <= 0
 c422: - 51 x35 + x329 <= 0
 c423: - 62 x36 + x331 <= 0
 c424: - 66.5 x36 + x332 <= 0
 c425: - 57 x36 + x333 <= 0
 c426: - 56 x36 + x334 <= 0
 c427: - 66.5 x36 + x335 <= 0
 c428: - 61 x36 + x336 <= 0
 c429: - 55 x36 + x337 <= 0
 c430: - 66.5 x37 + x339 <= 0
 c431: - 58 x37 + x340 <= 0
 c432: - 57 x37 + x341 <= 0
 c433: - 66 x37 + x342 <= 0
 c434: - 66.5 x37 + x343 <= 0
 c435: - 53 x37 + x344 <= 0
 c436: - 56 x37 + x345 <= 0
 c437: - 61 x38 + x347 <= 0
 c438: - 58 x38 + x348 <= 0
 c439: - 57 x38 + x349 <= 0
 c440: - 66 x38 + x350 <= 0
 c441: - 66.5 x38 + x351 <= 0
 c442: - 53 x38 + x352 <= 0
 c443: - 56 x38 + x353 <= 0
 c444: - 61 x39 + x355 <= 0
 c445: - 66.5 x39 + x356 <= 0
 c446: - 57 x39 + x357 <= 0
 c447: - 66 x39 + x358 <= 0
 c448: - 66.5 x39 + x359 <= 0
 c449: - 53 x39 + x360 <= 0
 c450: - 56 x39 + x361 <= 0
 c451: - 61 x40 + x363 <= 0
 c452: - 66.5 x40 + x364 <= 0
 c453: - 58 x40 + x365 <= 0
 c454: - 66 x40 + x366 <= 0
 c455: - 66.5 x40 + x367 <= 0
 c456: - 53 x40 + x368 <= 0
 c457: - 56 x40 + x369 <= 0
 c458: - 61 x41 + x371 <= 0
 c459: - 66.5 x41 + x372 <= 0
 c460: - 58 x41 + x373 <= 0
 c461: - 57 x41 + x374 <= 0
 c462: - 66.5 x41 + x375 <= 0
 c463: - 53 x41 + x376 <= 0
 c464: - 56 x41 + x377 <= 0
 c465: - 61 x42 + x379 <= 0
 c466: - 66.5 x42 + x380 <= 0
 c467: - 58 x42 + x381 <= 0
 c468: - 57 x42 + x382 <= 0
 c469: - 66 x42 + x383 <= 0
 c470: - 66.5 x42 + x384 <= 0
 c471: - 56 x42 + x385 <= 0
 c472: - 61 x43 + x387 <= 0
 c473: - 66.5 x43 + x388 <= 0
 c474: - 58 x43 + x389 <= 0
 c475: - 57 x43 + x390 <= 0
 c476: - 66 x43 + x391 <= 0
 c477: - 66.5 x43 + x392 <= 0
 c478: - 53 x43 + x393 <= 0
 c479: - 66.5 x44 + x395 <= 0
 c480: - 52 x44 + x396 <= 0
 c481: - 52 x44 + x397 <= 0
 c482: - 61 x44 + x398 <= 0
 c483: - 55 x44 + x399 <= 0
 c484: - 65 x44 + x400 <= 0
 c485: - 47 x44 + x401 <= 0
 c486: - 66.5 x45 + x403 <= 0
 c487: - 52 x45 + x404 <= 0
 c488: - 52 x45 + x405 <= 0
 c489: - 61 x45 + x406 <= 0
 c490: - 55 x45 + x407 <= 0
 c491: - 65 x45 + x408 <= 0
 c492: - 47 x45 + x409 <= 0
 c493: - 66.5 x46 + x411 <= 0
 c494: - 66.5 x46 + x412 <= 0
 c495: - 52 x46 + x413 <= 0
 c496: - 61 x46 + x414 <= 0
 c497: - 55 x46 + x415 <= 0
 c498: - 65 x46 + x416 <= 0
 c499: - 47 x46 + x417 <= 0
 c500: - 66.5 x47 + x419 <= 0
 c501: - 66.5 x47 + x420 <= 0
 c502: - 52 x47 + x421 <= 0
 c503: - 61 x47 + x422 <= 0
 c504: - 55 x47 + x423 <= 0
 c505: - 65 x47 + x424 <= 0
 c506: - 47 x47 + x425 <= 0
 c507: - 66.5 x48 + x427 <= 0
 c508: - 66.5 x48 + x428 <= 0
 c509: - 52 x48 + x429 <= 0
 c510: - 52 x48 + x430 <= 0
 c511: - 55 x48 + x431 <= 0
 c512: - 65 x48 + x432 <= 0
 c513: - 47 x48 + x433 <= 0
 c514: - 66.5 x49 + x435 <= 0
 c515: - 66.5 x49 + x436 <= 0
 c516: - 52 x49 + x437 <= 0
 c517: - 52 x49 + x438 <= 0
 c518: - 61 x49 + x439 <= 0
 c519: - 65 x49 + x440 <= 0
 c520: - 47 x49 + x441 <= 0
 c521: - 66.5 x50 + x443 <= 0
 c522: - 66.5 x50 + x444 <= 0
 c523: - 52 x50 + x445 <= 0
 c524: - 52 x50 + x446 <= 0
 c525: - 61 x50 + x447 <= 0
 c526: - 55 x50 + x448 <= 0
 c527: - 65 x50 + x449 <= 0
 c528: - 66.5 x51 + x451 <= 0
 c529: - 55 x51 + x452 <= 0
 c530: - 54 x51 + x453 <= 0
 c531: - 64 x51 + x454 <= 0
 c532: - 58 x51 + x455 <= 0
 c533: - 58 x51 + x456 <= 0
 c534: - 61 x51 + x457 <= 0
 c535: - 61 x52 + x459 <= 0
 c536: - 55 x52 + x460 <= 0
 c537: - 54 x52 + x461 <= 0
 c538: - 64 x52 + x462 <= 0
 c539: - 58 x52 + x463 <= 0
 c540: - 58 x52 + x464 <= 0
 c541: - 61 x52 + x465 <= 0
 c542: - 61 x53 + x467 <= 0
 c543: - 66.5 x53 + x468 <= 0
 c544: - 54 x53 + x469 <= 0
 c545: - 64 x53 + x470 <= 0
 c546: - 58 x53 + x471 <= 0
 c547: - 58 x53 + x472 <= 0
 c548: - 61 x53 + x473 <= 0
 c549: - 61 x54 + x475 <= 0
 c550: - 66.5 x54 + x476 <= 0
 c551: - 55 x54 + x477 <= 0
 c552: - 64 x54 + x478 <= 0
 c553: - 58 x54 + x479 <= 0
 c554: - 58 x54 + x480 <= 0
 c555: - 61 x54 + x481 <= 0
 c556: - 61 x55 + x483 <= 0
 c557: - 66.5 x55 + x484 <= 0
 c558: - 55 x55 + x485 <= 0
 c559: - 54 x55 + x486 <= 0
 c560: - 58 x55 + x487 <= 0
 c561: - 58 x55 + x488 <= 0
 c562: - 61 x55 + x489 <= 0
 c563: - 61 x56 + x491 <= 0
 c564: - 66.5 x56 + x492 <= 0
 c565: - 55 x56 + x493 <= 0
 c566: - 54 x56 + x494 <= 0
 c567: - 64 x56 + x495 <= 0
 c568: - 58 x56 + x496 <= 0
 c569: - 61 x56 + x497 <= 0
 c570: - 61 x57 + x499 <= 0
 c571: - 66.5 x57 + x500 <= 0
 c572: - 55 x57 + x501 <= 0
 c573: - 54 x57 + x502 <= 0
 c574: - 64 x57 + x503 <= 0
 c575: - 58 x57 + x504 <= 0
 c576: - 61 x57 + x505 <= 0
 c577: - x59 - x67 - x75 - x83 - x91 - x99 - x107 - x123 - x131 - x139 - x147
       - x155 - x163 - x179 - x187 - x195 - x203 - x211 - x219 - x235 - x243
       - x251 - x259 - x267 - x275 - x291 - x299 - x307 - x315 - x323 - x331
       - x347 - x355 - x363 - x371 - x379 - x387 - x403 - x411 - x419 - x427
       - x435 - x443 - x459 - x467 - x475 - x483 - x491 - x499 + x506  = 0
 c578: - x68 - x76 - x84 - x92 - x100 - x108 - x115 - x124 - x132 - x140 - x148
       - x156 - x164 - x171 - x188 - x196 - x204 - x212 - x220 - x227 - x244
       - x252 - x260 - x268 - x276 - x283 - x300 - x308 - x316 - x324 - x332
       - x339 - x356 - x364 - x372 - x380 - x388 - x395 - x412 - x420 - x428
       - x436 - x444 - x451 - x468 - x476 - x484 - x492 - x500 + x507  = 0
 c579: - x60 - x77 - x85 - x93 - x101 - x109 - x116 - x133 - x141 - x149 - x157
       - x165 - x172 - x180 - x189 - x197 - x205 - x213 - x221 - x228 - x236
       - x253 - x261 - x269 - x277 - x284 - x292 - x309 - x317 - x325 - x333
       - x340 - x348 - x365 - x373 - x381 - x389 - x396 - x404 - x421 - x429
       - x437 - x445 - x452 - x460 - x477 - x485 - x493 - x501 + x508  = 0
 c580: - x61 - x69 - x86 - x94 - x102 - x110 - x117 - x125 - x142 - x150 - x158
       - x166 - x173 - x181 - x198 - x206 - x214 - x222 - x229 - x237 - x245
       - x254 - x262 - x270 - x278 - x285 - x293 - x301 - x318 - x326 - x334
       - x341 - x349 - x357 - x374 - x382 - x390 - x397 - x405 - x413 - x430
       - x438 - x446 - x453 - x461 - x469 - x486 - x494 - x502 + x509  = 0
 c581: - x62 - x70 - x78 - x95 - x103 - x111 - x118 - x126 - x134 - x151 - x159
       - x167 - x174 - x182 - x190 - x207 - x215 - x223 - x230 - x238 - x246
       - x263 - x271 - x279 - x286 - x294 - x302 - x310 - x319 - x327 - x335
       - x342 - x350 - x358 - x366 - x383 - x391 - x398 - x406 - x414 - x422
       - x439 - x447 - x454 - x462 - x470 - x478 - x495 - x503 + x510  = 0
 c582: - x63 - x71 - x79 - x87 - x104 - x112 - x119 - x127 - x135 - x143 - x160
       - x168 - x175 - x183 - x191 - x199 - x216 - x224 - x231 - x239 - x247
       - x255 - x272 - x280 - x287 - x295 - x303 - x311 - x328 - x336 - x343
       - x351 - x359 - x367 - x375 - x384 - x392 - x399 - x407 - x415 - x423
       - x431 - x448 - x455 - x463 - x471 - x479 - x487 - x504 + x511  = 0
 c583: - x64 - x72 - x80 - x88 - x96 - x113 - x120 - x128 - x136 - x144 - x152
       - x169 - x176 - x184 - x192 - x200 - x208 - x225 - x232 - x240 - x248
       - x256 - x264 - x281 - x288 - x296 - x304 - x312 - x320 - x337 - x344
       - x352 - x360 - x368 - x376 - x393 - x400 - x408 - x416 - x424 - x432
       - x440 - x449 - x456 - x464 - x472 - x480 - x488 - x496 + x512  = 0
 c584: - x65 - x73 - x81 - x89 - x97 - x105 - x121 - x129 - x137 - x145 - x153
       - x161 - x177 - x185 - x193 - x201 - x209 - x217 - x233 - x241 - x249
       - x257 - x265 - x273 - x289 - x297 - x305 - x313 - x321 - x329 - x345
       - x353 - x361 - x369 - x377 - x385 - x401 - x409 - x417 - x425 - x433
       - x441 - x457 - x465 - x473 - x481 - x489 - x497 - x505 + x513  = 0
 c585: 10 x2 + 7 x3 + 13 x4 + 12 x5 + 13 x6 + 6 x7 + 13 x8 + x506 >= 154
 c586: 14 x9 + 15 x10 + 13 x11 + 12 x12 + 9 x13 + 9 x14 + 9 x15 + x507 >= 171
 c587: 13 x16 + 9 x17 + 11 x18 + 6 x19 + 5 x20 + 11 x21 + 8 x22 + x508 >= 131
 c588: 7 x23 + 8 x24 + 15 x25 + 7 x26 + 6 x27 + 11 x28 + 9 x29 + x509 >= 132
 c589: 8 x30 + 12 x31 + 12 x32 + 9 x33 + 9 x34 + 14 x35 + 11 x36 + x510 >= 158
 c590: 5 x37 + 11 x38 + 11 x39 + 7 x40 + 9 x41 + 15 x42 + 12 x43 + x511 >= 145
 c591: 6 x44 + 9 x45 + 7 x46 + 14 x47 + 10 x48 + 12 x49 + 7 x50 + x512 >= 136
 c592: 11 x51 + 7 x52 + 8 x53 + 6 x54 + 10 x55 + 5 x56 + 14 x57 + x513 >= 127
 c593: - x58 - x66 - x74 - x82 - x90 - x98 - x106 + x514  = 0
 c594: x1 - 0.5 x514 >= 0
 c595: - x114 - x122 - x130 - x138 - x146 - x154 - x162 + x515  = 0
 c596: x1 - 0.5 x515 >= 0
 c597: - x170 - x178 - x186 - x194 - x202 - x210 - x218 + x516  = 0
 c598: x1 - 0.5 x516 >= 0
 c599: - x226 - x234 - x242 - x250 - x258 - x266 - x274 + x517  = 0
 c600: x1 - 0.5 x517 >= 0
 c601: - x282 - x290 - x298 - x306 - x314 - x322 - x330 + x518  = 0
 c602: x1 - 0.5 x518 >= 0
 c603: - x338 - x346 - x354 - x362 - x370 - x378 - x386 + x519  = 0
 c604: x1 - 0.5 x519 >= 0
 c605: - x394 - x402 - x410 - x418 - x426 - x434 - x442 + x520  = 0
 c606: x1 - 0.5 x520 >= 0
 c607: - x450 - x458 - x466 - x474 - x482 - x490 - x498 + x521  = 0
 c608: x1 - 0.5 x521 >= 0
 c609: - 10 x2 + x59 - x123 - x131 - x139 - x147 - x155 - x163 <= 0
 c610: - 7 x3 + x67 - x179 - x187 - x195 - x203 - x211 - x219 <= 0
 c611: - 13 x4 + x75 - x235 - x243 - x251 - x259 - x267 - x275 <= 0
 c612: - 12 x5 + x83 - x291 - x299 - x307 - x315 - x323 - x331 <= 0
 c613: - 13 x6 + x91 - x347 - x355 - x363 - x371 - x379 - x387 <= 0
 c614: - 6 x7 + x99 - x403 - x411 - x419 - x427 - x435 - x443 <= 0
 c615: - 13 x8 + x107 - x459 - x467 - x475 - x483 - x491 - x499 <= 0
 c616: - 14 x9 - x68 - x76 - x84 - x92 - x100 - x108 + x115 <= 0
 c617: - 15 x10 + x124 - x171 - x188 - x196 - x204 - x212 - x220 <= 0
 c618: - 13 x11 + x132 - x227 - x244 - x252 - x260 - x268 - x276 <= 0
 c619: - 12 x12 + x140 - x283 - x300 - x308 - x316 - x324 - x332 <= 0
 c620: - 9 x13 + x148 - x339 - x356 - x364 - x372 - x380 - x388 <= 0
 c621: - 9 x14 + x156 - x395 - x412 - x420 - x428 - x436 - x444 <= 0
 c622: - 9 x15 + x164 - x451 - x468 - x476 - x484 - x492 - x500 <= 0
 c623: - 13 x16 - x60 - x77 - x85 - x93 - x101 - x109 + x172 <= 0
 c624: - 9 x17 - x116 - x133 - x141 - x149 - x157 - x165 + x180 <= 0
 c625: - 11 x18 + x189 - x228 - x236 - x253 - x261 - x269 - x277 <= 0
 c626: - 6 x19 + x197 - x284 - x292 - x309 - x317 - x325 - x333 <= 0
 c627: - 5 x20 + x205 - x340 - x348 - x365 - x373 - x381 - x389 <= 0
 c628: - 11 x21 + x213 - x396 - x404 - x421 - x429 - x437 - x445 <= 0
 c629: - 8 x22 + x221 - x452 - x460 - x477 - x485 - x493 - x501 <= 0
 c630: - 7 x23 - x61 - x69 - x86 - x94 - x102 - x110 + x229 <= 0
 c631: - 8 x24 - x117 - x125 - x142 - x150 - x158 - x166 + x237 <= 0
 c632: - 15 x25 - x173 - x181 - x198 - x206 - x214 - x222 + x245 <= 0
 c633: - 7 x26 + x254 - x285 - x293 - x301 - x318 - x326 - x334 <= 0
 c634: - 6 x27 + x262 - x341 - x349 - x357 - x374 - x382 - x390 <= 0
 c635: - 11 x28 + x270 - x397 - x405 - x413 - x430 - x438 - x446 <= 0
 c636: - 9 x29 + x278 - x453 - x461 - x469 - x486 - x494 - x502 <= 0
 c637: - 8 x30 - x62 - x70 - x78 - x95 - x103 - x111 + x286 <= 0
 c638: - 12 x31 - x118 - x126 - x134 - x151 - x159 - x167 + x294 <= 0
 c639: - 12 x32 - x174 - x182 - x190 - x207 - x215 - x223 + x302 <= 0
 c640: - 9 x33 - x230 - x238 - x246 - x263 - x271 - x279 + x310 <= 0
 c641: - 9 x34 + x319 - x342 - x350 - x358 - x366 - x383 - x391 <= 0
 c642: - 14 x35 + x327 - x398 - x406 - x414 - x422 - x439 - x447 <= 0
 c643: - 11 x36 + x335 - x454 - x462 - x470 - x478 - x495 - x503 <= 0
 c644: - 5 x37 - x63 - x71 - x79 - x87 - x104 - x112 + x343 <= 0
 c645: - 11 x38 - x119 - x127 - x135 - x143 - x160 - x168 + x351 <= 0
 c646: - 11 x39 - x175 - x183 - x191 - x199 - x216 - x224 + x359 <= 0
 c647: - 7 x40 - x231 - x239 - x247 - x255 - x272 - x280 + x367 <= 0
 c648: - 9 x41 - x287 - x295 - x303 - x311 - x328 - x336 + x375 <= 0
 c649: - 15 x42 + x384 - x399 - x407 - x415 - x423 - x431 - x448 <= 0
 c650: - 12 x43 + x392 - x455 - x463 - x471 - x479 - x487 - x504 <= 0
 c651: - 6 x44 - x64 - x72 - x80 - x88 - x96 - x113 + x400 <= 0
 c652: - 9 x45 - x120 - x128 - x136 - x144 - x152 - x169 + x408 <= 0
 c653: - 7 x46 - x176 - x184 - x192 - x200 - x208 - x225 + x416 <= 0
 c654: - 14 x47 - x232 - x240 - x248 - x256 - x264 - x281 + x424 <= 0
 c655: - 10 x48 - x288 - x296 - x304 - x312 - x320 - x337 + x432 <= 0
 c656: - 12 x49 - x344 - x352 - x360 - x368 - x376 - x393 + x440 <= 0
 c657: - 7 x50 + x449 - x456 - x464 - x472 - x480 - x488 - x496 <= 0
 c658: - 11 x51 - x65 - x73 - x81 - x89 - x97 - x105 + x457 <= 0
 c659: - 7 x52 - x121 - x129 - x137 - x145 - x153 - x161 + x465 <= 0
 c660: - 8 x53 - x177 - x185 - x193 - x201 - x209 - x217 + x473 <= 0
 c661: - 6 x54 - x233 - x241 - x249 - x257 - x265 - x273 + x481 <= 0
 c662: - 10 x55 - x289 - x297 - x305 - x313 - x321 - x329 + x489 <= 0
 c663: - 5 x56 - x345 - x353 - x361 - x369 - x377 - x385 + x497 <= 0
 c664: - 14 x57 - x401 - x409 - x417 - x425 - x433 - x441 + x505 <= 0
Bounds
 0 <= x2 <= 1
 0 <= x3 <= 1
 0 <= x4 <= 1
 0 <= x5 <= 1
 0 <= x6 <= 1
 0 <= x7 <= 1
 0 <= x8 <= 1
 0 <= x9 <= 1
 0 <= x10 <= 1
 0 <= x11 <= 1
 0 <= x12 <= 1
 0 <= x13 <= 1
 0 <= x14 <= 1
 0 <= x15 <= 1
 0 <= x16 <= 1
 0 <= x17 <= 1
 0 <= x18 <= 1
 0 <= x19 <= 1
 0 <= x20 <= 1
 0 <= x21 <= 1
 0 <= x22 <= 1
 0 <= x23 <= 1
 0 <= x24 <= 1
 0 <= x25 <= 1
 0 <= x26 <= 1
 0 <= x27 <= 1
 0 <= x28 <= 1
 0 <= x29 <= 1
 0 <= x30 <= 1
 0 <= x31 <= 1
 0 <= x32 <= 1
 0 <= x33 <= 1
 0 <= x34 <= 1
 0 <= x35 <= 1
 0 <= x36 <= 1
 0 <= x37 <= 1
 0 <= x38 <= 1
 0 <= x39 <= 1
 0 <= x40 <= 1
 0 <= x41 <= 1
 0 <= x42 <= 1
 0 <= x43 <= 1
 0 <= x44 <= 1
 0 <= x45 <= 1
 0 <= x46 <= 1
 0 <= x47 <= 1
 0 <= x48 <= 1
 0 <= x49 <= 1
 0 <= x50 <= 1
 0 <= x51 <= 1
 0 <= x52 <= 1
 0 <= x53 <= 1
 0 <= x54 <= 1
 0 <= x55 <= 1
 0 <= x56 <= 1
 0 <= x57 <= 1
 74 <= x514 <= 133
 81 <= x515 <= 133
 63 <= x516 <= 133
 63 <= x517 <= 133
 75 <= x518 <= 133
 70 <= x519 <= 133
 65 <= x520 <= 133
 61 <= x521 <= 133
Binaries
 x2  x3  x4  x5  x6  x7  x8  x9  x10  x11  x12  x13  x14  x15  x16  x17  x18 
 x19  x20  x21  x22  x23  x24  x25  x26  x27  x28  x29  x30  x31  x32  x33 
 x34  x35  x36  x37  x38  x39  x40  x41  x42  x43  x44  x45  x46  x47  x48 
 x49  x50  x51  x52  x53  x54  x55  x56  x57 
End
